Route #1: 1 1 22 43 41 49 24 72 6 16 63 33 73 1 
Route #2: 1 2 75 27 45 29 5 37 70 69 21 1 
Route #3: 1 23 18 9 31 58 40 44 3 17 71 1 
Route #4: 1 68 67 26 7 65 35 8 52 15 20 48 1 
Route #5: 1 61 74 30 47 13 34 46 53 12 25 1 
Route #6: 1 28 4 19 66 38 10 39 1 
Route #7: 1 56 32 50 55 11 59 54 51 1 
Route #8: 1 42 64 62 36 60 57 14 1 

Cost 1407.06
Time 1.1403


 * Another infos *

 Iterations: 76 Time: 1.1403 sec - 0.0190 min - 0.0003 horas
0.0000 h 0.0190 min
Problem dimension: 76
